GLPSOL--GLPK LP/MIP Solver 5.0
Parameter(s) specified in the command line:
 --lp ../modeles/4_19.lp --log 4_19.log
Reading problem data from '../modeles/4_19.lp'...
93 rows, 160 columns, 552 non-zeros
76 integer variables, all of which are binary
263 lines were read
GLPK Integer Optimizer 5.0
93 rows, 160 columns, 552 non-zeros
76 integer variables, all of which are binary
Preprocessing...
72 constraint coefficient(s) were reduced
93 rows, 156 columns, 548 non-zeros
76 integer variables, all of which are binary
Scaling...
 A: min|aij| =  1.108e-02  max|aij| =  4.000e+00  ratio =  3.610e+02
GM: min|aij| =  2.294e-01  max|aij| =  4.359e+00  ratio =  1.900e+01
EQ: min|aij| =  5.263e-02  max|aij| =  1.000e+00  ratio =  1.900e+01
2N: min|aij| =  4.432e-02  max|aij| =  1.604e+00  ratio =  3.620e+01
Constructing initial basis...
Size of triangular part is 93
Solving LP relaxation...
GLPK Simplex Optimizer 5.0
93 rows, 156 columns, 548 non-zeros
      0: obj =   8.000000000e+00 inf =   1.950e+01 (9)
     19: obj =   4.791666667e-01 inf =   0.000e+00 (0)
*    63: obj =  -1.976973684e+00 inf =   0.000e+00 (0)
OPTIMAL LP SOLUTION FOUND
Integer optimization begins...
Long-step dual simplex will be used
+    63: mip =     not found yet >=              -inf        (1; 0)
+    68: >>>>>  -1.976973684e+00 >=  -1.976973684e+00   0.0% (4; 0)
+    68: mip =  -1.976973684e+00 >=     tree is empty   0.0% (0; 7)
INTEGER OPTIMAL SOLUTION FOUND
Time used:   0.0 secs
Memory used: 0.3 Mb (282180 bytes)
